<instance format="XCSP3" type="COP">
  <variables>
    <array id="x" size="[50]"> 0 1 </array>
  </variables>
  <constraints>
    <sum>
      <list> x[] </list>
      <coeffs> 43 1 26 49 14 11 44 14 7 15 11 17 6 6 13 5 45 20 11 25 24 29 3 20 41 38 45 33 21 6 12 19 24 26 45 32 9 38 10 29 21 34 2 1 18 7 19 4 7 22 </coeffs>
      <condition> (le,200) </condition>
    </sum>
  </constraints>
  <objectives>
    <maximize type="sum">
      <list> x[] </list>
      <coeffs> 72 1 34 53 86 93 10 92 86 79 46 3 98 14 1 54 86 69 50 100 29 80 92 80 25 50 77 19 88 6 69 95 21 74 51 88 60 78 4 95 48 34 5 60 94 58 81 2 91 34 </coeffs>
    </maximize>
  </objectives>
</instance>
